NAME : rnd30_20.tsp
TYPE : TSP
DIMENSION : 20
EDGE_WEIGHT_TYPE : EUC_2D
NODE_COORD_SECTION
1 878 352
2 418 509
3 409 94
4 362 383
5 604 42
6 746 800
7 5 29
8 953 458
9 519 712
10 453 401
11 821 673
12 617 873
13 734 921
14 211 35
15 243 334
16 239 640
17 637 672
18 350 177
19 485 390
20 437 576
